33D32945 STP File, STP Format Version 1.0

SECTION Comment
Name    "Prosty graf 3b"
END

SECTION Graph
Nodes 8
Edges 13
E 1 2 8
E 1 5 6
E 1 7 10
E 2 3 5
E 2 5 2
E 3 4 4
E 3 5 5
E 4 5 4
E 4 6 8
E 5 6 3
E 6 7 5
E 6 8 1
E 7 8 7
END

SECTION Terminals
Terminals 3
T 2
T 5
T 8
END

EOF